============================[ Problem Statistics ]=============================|                                                                             ||  Number of variables:          4242                                         ||  Number of clauses:            9679                                         ||  Parse time:                   0.09 s                                       ||                                                                             |============================[ Search Statistics ]==============================| Conflicts |          ORIGINAL         |          LEARNT          | Progress ||           |    Vars  Clauses Literals |    Limit  Clauses Lit/Cl |          |==============================================================================================================================================================restarts              : 1conflicts             : 52             (423 /sec)decisions             : 137            (0.00 % random) (1114 /sec)propagations          : 8128           (66081 /sec)conflict literals     : 2301           (95.87 % deleted)CPU time              : 0.123 sSATISFIABLE